db/data/2606223671171992482627891276922417729777.z3.out
-------------------
2500.169891601
